(declare-const a Real)
(declare-const b Real)
(declare-const c Real)
(assert (= (+ (pow a 2) (pow b 2) (pow c 2)) 12))
(assert (> a 0))
(assert (> b 0))
(assert (> c 0))
(assert (not (<= (+ (* 6 (pow a 3)) (* 9 (pow b 3)) (* 12 (pow c 3)) (* (pow b 2) (+ (* -12 a) (* -12 b) (* -12 c))) (* -12 (pow a 2) (pow (+ (* 3 (pow a 2)) (* 3 (pow b 2)) (* 3 (pow c 2))) (/ 1 2))) (* -12 (pow c 2) (pow (+ (* 3 (pow a 2)) (* 3 (pow b 2)) (* 3 (pow c 2))) (/ 1 2))) (* 18 b (pow c 2)) (* 18 c (pow a 2)) (* 18 c (pow b 2)) (* 27 b (pow a 2))) 0)))
(check-sat)
(get-model)
(exit)